547
2009
3332
2641
1446
1049
3418
1615
2606
3474
1175
3044
969
1376
1625
503
371
442
2522
1729
3153
2175
2471
1234
3360
3643
1782
2029
508
3467
2852
2865
2223
1170
1185
1306
1691
1451
2071
3635
1163
3256
2981
2513
1262
1134
3260
705
1899
3519

1853
24694
45781
31506
13674
14024
46683
18983
43377
51992
10017
48736
150
12622
16629

37
493
914
629
273
280
932
379
866
1038
200
973
3
252
332

1520.2

6
67
124
86
38
38
127
52
118
141
28
132
1
35
46
11
6
11
114
65
132
76
114
44
146
147
62
78
22
149
97
137
110
52
44
47
43
59
63
138
33
113
125
78
14
51
118
31
90
145
